84, 1798
865, 194
1728, 433
659, 328
1737, 307
1959, 488
1888, 134
1244, 209
1931, 484
1481, 330
1702, 410
2073, 245
2289, 296
2336, 274
1859, 497
1580, 169
1656, 378
1304, 142
703, 393
718, 241
1295, 243
862, 367
2057, 122
673, 263
1641, 181
1891, 159
2483, 114
767, 458
637, 192
896, 390
1939, 270
1326, 399
997, 415
1943, 197
2472, 366
1661, 180
1454, 413
909, 283
1101, 225
1989, 205
2383, 102
2484, 229
1206, 194
699, 477
2199, 463
2066, 342
636, 108
1505, 403
1933, 493
2066, 299
2304, 377
1261, 340
1166, 364
1348, 184
651, 176
1743, 331
597, 146
766, 113
1924, 420
1192, 436
1489, 456
1570, 307
1256, 413
2320, 170
1738, 235
683, 206
2323, 476
1183, 416
1731, 246
2479, 125
1485, 147
2424, 314
1386, 422
1932, 361
1778, 161
1288, 499
1764, 471
2321, 465
1193, 472
1913, 372
2290, 378
1207, 237
1548, 396
636, 320
557, 348